certificates/rado_a15_c144_N58.cnf
c Rad2 upper bound instance: x1 + 15*x2 - x3 = 144, interval [1,58]
p cnf 58 448
1 7 10 0
-1 -7 -10 0
1 11 22 0
-1 -11 -22 0
1 12 37 0
-1 -12 -37 0
1 13 52 0
-1 -13 -52 0
2 8 10 0
-2 -8 -10 0
2 11 23 0
-2 -11 -23 0
2 12 38 0
-2 -12 -38 0
2 13 53 0
-2 -13 -53 0
3 9 10 0
-3 -9 -10 0
3 11 24 0
-3 -11 -24 0
3 12 39 0
-3 -12 -39 0
3 13 54 0
-3 -13 -54 0
4 10 0
-4 -10 0
4 11 25 0
-4 -11 -25 0
4 12 40 0
-4 -12 -40 0
4 13 55 0
-4 -13 -55 0
5 10 11 0
-5 -10 -11 0
5 11 26 0
-5 -11 -26 0
5 12 41 0
-5 -12 -41 0
5 13 56 0
-5 -13 -56 0
6 10 12 0
-6 -10 -12 0
6 11 27 0
-6 -11 -27 0
6 12 42 0
-6 -12 -42 0
6 13 57 0
-6 -13 -57 0
7 10 13 0
-7 -10 -13 0
7 11 28 0
-7 -11 -28 0
7 12 43 0
-7 -12 -43 0
7 13 58 0
-7 -13 -58 0
8 10 14 0
-8 -10 -14 0
8 11 29 0
-8 -11 -29 0
8 12 44 0
-8 -12 -44 0
9 10 15 0
-9 -10 -15 0
9 11 30 0
-9 -11 -30 0
9 12 45 0
-9 -12 -45 0
1 9 10 0
-1 -9 -10 0
10 16 0
-10 -16 0
10 11 31 0
-10 -11 -31 0
10 12 46 0
-10 -12 -46 0
2 9 11 0
-2 -9 -11 0
10 11 17 0
-10 -11 -17 0
11 32 0
-11 -32 0
11 12 47 0
-11 -12 -47 0
3 9 12 0
-3 -9 -12 0
10 12 18 0
-10 -12 -18 0
11 12 33 0
-11 -12 -33 0
12 48 0
-12 -48 0
4 9 13 0
-4 -9 -13 0
10 13 19 0
-10 -13 -19 0
11 13 34 0
-11 -13 -34 0
12 13 49 0
-12 -13 -49 0
5 9 14 0
-5 -9 -14 0
10 14 20 0
-10 -14 -20 0
11 14 35 0
-11 -14 -35 0
12 14 50 0
-12 -14 -50 0
6 9 15 0
-6 -9 -15 0
10 15 21 0
-10 -15 -21 0
11 15 36 0
-11 -15 -36 0
12 15 51 0
-12 -15 -51 0
7 9 16 0
-7 -9 -16 0
10 16 22 0
-10 -16 -22 0
11 16 37 0
-11 -16 -37 0
12 16 52 0
-12 -16 -52 0
8 9 17 0
-8 -9 -17 0
10 17 23 0
-10 -17 -23 0
11 17 38 0
-11 -17 -38 0
12 17 53 0
-12 -17 -53 0
9 18 0
-9 -18 0
10 18 24 0
-10 -18 -24 0
11 18 39 0
-11 -18 -39 0
12 18 54 0
-12 -18 -54 0
9 10 19 0
-9 -10 -19 0
10 19 25 0
-10 -19 -25 0
11 19 40 0
-11 -19 -40 0
12 19 55 0
-12 -19 -55 0
9 11 20 0
-9 -11 -20 0
10 20 26 0
-10 -20 -26 0
11 20 41 0
-11 -20 -41 0
12 20 56 0
-12 -20 -56 0
9 12 21 0
-9 -12 -21 0
10 21 27 0
-10 -21 -27 0
11 21 42 0
-11 -21 -42 0
12 21 57 0
-12 -21 -57 0
9 13 22 0
-9 -13 -22 0
10 22 28 0
-10 -22 -28 0
11 22 43 0
-11 -22 -43 0
12 22 58 0
-12 -22 -58 0
9 14 23 0
-9 -14 -23 0
10 23 29 0
-10 -23 -29 0
11 23 44 0
-11 -23 -44 0
9 15 24 0
-9 -15 -24 0
10 24 30 0
-10 -24 -30 0
11 24 45 0
-11 -24 -45 0
1 8 25 0
-1 -8 -25 0
9 16 25 0
-9 -16 -25 0
10 25 31 0
-10 -25 -31 0
11 25 46 0
-11 -25 -46 0
2 8 26 0
-2 -8 -26 0
9 17 26 0
-9 -17 -26 0
10 26 32 0
-10 -26 -32 0
11 26 47 0
-11 -26 -47 0
3 8 27 0
-3 -8 -27 0
9 18 27 0
-9 -18 -27 0
10 27 33 0
-10 -27 -33 0
11 27 48 0
-11 -27 -48 0
4 8 28 0
-4 -8 -28 0
9 19 28 0
-9 -19 -28 0
10 28 34 0
-10 -28 -34 0
11 28 49 0
-11 -28 -49 0
5 8 29 0
-5 -8 -29 0
9 20 29 0
-9 -20 -29 0
10 29 35 0
-10 -29 -35 0
11 29 50 0
-11 -29 -50 0
6 8 30 0
-6 -8 -30 0
9 21 30 0
-9 -21 -30 0
10 30 36 0
-10 -30 -36 0
11 30 51 0
-11 -30 -51 0
7 8 31 0
-7 -8 -31 0
9 22 31 0
-9 -22 -31 0
10 31 37 0
-10 -31 -37 0
11 31 52 0
-11 -31 -52 0
8 32 0
-8 -32 0
9 23 32 0
-9 -23 -32 0
10 32 38 0
-10 -32 -38 0
11 32 53 0
-11 -32 -53 0
8 9 33 0
-8 -9 -33 0
9 24 33 0
-9 -24 -33 0
10 33 39 0
-10 -33 -39 0
11 33 54 0
-11 -33 -54 0
8 10 34 0
-8 -10 -34 0
9 25 34 0
-9 -25 -34 0
10 34 40 0
-10 -34 -40 0
11 34 55 0
-11 -34 -55 0
8 11 35 0
-8 -11 -35 0
9 26 35 0
-9 -26 -35 0
10 35 41 0
-10 -35 -41 0
11 35 56 0
-11 -35 -56 0
8 12 36 0
-8 -12 -36 0
9 27 36 0
-9 -27 -36 0
10 36 42 0
-10 -36 -42 0
11 36 57 0
-11 -36 -57 0
8 13 37 0
-8 -13 -37 0
9 28 37 0
-9 -28 -37 0
10 37 43 0
-10 -37 -43 0
11 37 58 0
-11 -37 -58 0
8 14 38 0
-8 -14 -38 0
9 29 38 0
-9 -29 -38 0
10 38 44 0
-10 -38 -44 0
8 15 39 0
-8 -15 -39 0
9 30 39 0
-9 -30 -39 0
10 39 45 0
-10 -39 -45 0
1 7 40 0
-1 -7 -40 0
8 16 40 0
-8 -16 -40 0
9 31 40 0
-9 -31 -40 0
10 40 46 0
-10 -40 -46 0
2 7 41 0
-2 -7 -41 0
8 17 41 0
-8 -17 -41 0
9 32 41 0
-9 -32 -41 0
10 41 47 0
-10 -41 -47 0
3 7 42 0
-3 -7 -42 0
8 18 42 0
-8 -18 -42 0
9 33 42 0
-9 -33 -42 0
10 42 48 0
-10 -42 -48 0
4 7 43 0
-4 -7 -43 0
8 19 43 0
-8 -19 -43 0
9 34 43 0
-9 -34 -43 0
10 43 49 0
-10 -43 -49 0
5 7 44 0
-5 -7 -44 0
8 20 44 0
-8 -20 -44 0
9 35 44 0
-9 -35 -44 0
10 44 50 0
-10 -44 -50 0
6 7 45 0
-6 -7 -45 0
8 21 45 0
-8 -21 -45 0
9 36 45 0
-9 -36 -45 0
10 45 51 0
-10 -45 -51 0
7 46 0
-7 -46 0
8 22 46 0
-8 -22 -46 0
9 37 46 0
-9 -37 -46 0
10 46 52 0
-10 -46 -52 0
7 8 47 0
-7 -8 -47 0
8 23 47 0
-8 -23 -47 0
9 38 47 0
-9 -38 -47 0
10 47 53 0
-10 -47 -53 0
7 9 48 0
-7 -9 -48 0
8 24 48 0
-8 -24 -48 0
9 39 48 0
-9 -39 -48 0
10 48 54 0
-10 -48 -54 0
7 10 49 0
-7 -10 -49 0
8 25 49 0
-8 -25 -49 0
9 40 49 0
-9 -40 -49 0
10 49 55 0
-10 -49 -55 0
7 11 50 0
-7 -11 -50 0
8 26 50 0
-8 -26 -50 0
9 41 50 0
-9 -41 -50 0
10 50 56 0
-10 -50 -56 0
7 12 51 0
-7 -12 -51 0
8 27 51 0
-8 -27 -51 0
9 42 51 0
-9 -42 -51 0
10 51 57 0
-10 -51 -57 0
7 13 52 0
-7 -13 -52 0
8 28 52 0
-8 -28 -52 0
9 43 52 0
-9 -43 -52 0
10 52 58 0
-10 -52 -58 0
7 14 53 0
-7 -14 -53 0
8 29 53 0
-8 -29 -53 0
9 44 53 0
-9 -44 -53 0
7 15 54 0
-7 -15 -54 0
8 30 54 0
-8 -30 -54 0
9 45 54 0
-9 -45 -54 0
1 6 55 0
-1 -6 -55 0
7 16 55 0
-7 -16 -55 0
8 31 55 0
-8 -31 -55 0
9 46 55 0
-9 -46 -55 0
2 6 56 0
-2 -6 -56 0
7 17 56 0
-7 -17 -56 0
8 32 56 0
-8 -32 -56 0
9 47 56 0
-9 -47 -56 0
3 6 57 0
-3 -6 -57 0
7 18 57 0
-7 -18 -57 0
8 33 57 0
-8 -33 -57 0
9 48 57 0
-9 -48 -57 0
4 6 58 0
-4 -6 -58 0
7 19 58 0
-7 -19 -58 0
8 34 58 0
-8 -34 -58 0
9 49 58 0
-9 -49 -58 0
