certificates/rado_a15_c144_N58.drat
-52 -58 0
d -52 -10 -58 0
-16 -55 0
16 -58 0
-58 0
-16 0
10 0
-4 0
6 0
-12 0
40 0
48 0
52 0
22 0
-46 0
-34 0
-54 0
-42 0
-28 0
7 0
8 0
18 0
-13 0
-1 0
-49 0
-45 0
-9 0
-2 0
-14 0
-30 0
-31 0
-32 0
-47 0
-24 0
-57 0
3 0
55 0
0
